1 9 7 5 4 34 3 27 6 7 0 5 5 21 2 9 8 32
3 27 8 12 0 12 1 21 7 31 2 14 6 31 5 7 4 27
2 26 4 14 6 10 3 32 1 22 7 12 8 14 0 7 5 14
4 32 1 22 5 24 7 15 2 12 3 12 8 26 0 10 6 10
3 2 1 9 2 5 8 21 0 17 4 24 6 12 5 32 7 22
2 34 0 22 5 29 3 31 7 3 1 14 8 7 4 24 6 32
6 29 4 10 5 3 3 2 8 21 0 12 2 31 7 22 1 12
0 7 4 12 7 9 5 27 3 24 1 26 6 22 8 27 2 17
1 10 8 17 4 22 7 3 2 7 0 9 3 29 5 32 6 7
